200
1000
624
624
619
617
617
616
614
613
609
607
590
584
580
580
578
577
576
576
574
570
568
566
565
561
554
552
552
549
544
543
534
534
531
530
516
515
511
507
507
501
501
501
499
497
496
496
490
488
487
486
485
482
473
470
466
462
461
458
458
453
452
451
450
447
443
443
442
435
435
431
430
425
415
412
410
408
406
404
402
401
396
395
389
388
388
387
387
387
386
384
379
379
379
376
375
373
370
367
367
363
359
359
357
341
335
333
332
326
312
312
310
306
300
299
299
293
283
278
277
275
272
271
270
261
260
258
257
257
256
256
253
249
236
231
215
211
209
209
206
206
196
194
189
188
186
186
184
181
172
170
169
167
159
155
152
150
150
149
148
147
146
140
140
138
134
130
129
128
121
119
119
116
113
107
103
102
94
93
90
89
87
87
85
85
78
76
74
73
72
72
67
65
64
64
63
60
46
46
39
35
